; Copyright (c) 2026 The RIINA Authors. All rights reserved.
; Auto-generated from 02_FORMAL/coq/domains/CoreBanking.v (31 validations)
; Generated by scripts/generate-full-stack.py
;
; Translation Validation for CoreBanking
; Layer 9: Verifies compiler backend preserves formal semantics.
; Each assertion checks source IR ≡ target code for a proven property.

(set-logic QF_LIA)
(set-option :produce-models true)

; IR node representation
(declare-sort IRNode 0)
(declare-sort TargetNode 0)

; kyc_complete: source semantics (matches Coq)
(declare-fun source_kyc_complete () Bool)
(declare-fun target_kyc_complete () Bool)
(assert (= source_kyc_complete target_kyc_complete))

; total_ownership: source semantics (matches Coq)
(declare-fun source_total_ownership () Bool)
(declare-fun target_total_ownership () Bool)
(assert (= source_total_ownership target_total_ownership))

; complete_ownership: source semantics (matches Coq)
(declare-fun source_complete_ownership () Bool)
(declare-fun target_complete_ownership () Bool)
(assert (= source_complete_ownership target_complete_ownership))

; all_parties_screened: source semantics (matches Coq)
(declare-fun source_all_parties_screened () Bool)
(declare-fun target_all_parties_screened () Bool)
(assert (= source_all_parties_screened target_all_parties_screened))

; well_formed_savings: source semantics (matches Coq)
(declare-fun source_well_formed_savings () Bool)
(declare-fun target_well_formed_savings () Bool)
(assert (= source_well_formed_savings target_well_formed_savings))

; should_be_dormant: source semantics (matches Coq)
(declare-fun source_should_be_dormant () Bool)
(declare-fun target_should_be_dormant () Bool)
(assert (= source_should_be_dormant target_should_be_dormant))

; dormancy_consistent: source semantics (matches Coq)
(declare-fun source_dormancy_consistent () Bool)
(declare-fun target_dormancy_consistent () Bool)
(assert (= source_dormancy_consistent target_dormancy_consistent))

; debits: source semantics (matches Coq)
(declare-fun source_debits () Bool)
(declare-fun target_debits () Bool)
(assert (= source_debits target_debits))

; credits: source semantics (matches Coq)
(declare-fun source_credits () Bool)
(declare-fun target_credits () Bool)
(assert (= source_credits target_credits))

; valid_entry: source semantics (matches Coq)
(declare-fun source_valid_entry () Bool)
(declare-fun target_valid_entry () Bool)
(assert (= source_valid_entry target_valid_entry))

; valid_entries: source semantics (matches Coq)
(declare-fun source_valid_entries () Bool)
(declare-fun target_valid_entries () Bool)
(assert (= source_valid_entries target_valid_entries))

; interest_formula: source semantics (matches Coq)
(declare-fun source_interest_formula () Bool)
(declare-fun target_interest_formula () Bool)
(assert (= source_interest_formula target_interest_formula))

; precise_interest: source semantics (matches Coq)
(declare-fun source_precise_interest () Bool)
(declare-fun target_precise_interest () Bool)
(assert (= source_precise_interest target_precise_interest))

; early_withdrawal: source semantics (matches Coq)
(declare-fun source_early_withdrawal () Bool)
(declare-fun target_early_withdrawal () Bool)
(assert (= source_early_withdrawal target_early_withdrawal))

; penalty_enforced: source semantics (matches Coq)
(declare-fun source_penalty_enforced () Bool)
(declare-fun target_penalty_enforced () Bool)
(assert (= source_penalty_enforced target_penalty_enforced))

; within_eligibility: source semantics (matches Coq)
(declare-fun source_within_eligibility () Bool)
(declare-fun target_within_eligibility () Bool)
(assert (= source_within_eligibility target_within_eligibility))

; sufficient_collateral: source semantics (matches Coq)
(declare-fun source_sufficient_collateral () Bool)
(declare-fun target_sufficient_collateral () Bool)
(assert (= source_sufficient_collateral target_sufficient_collateral))

; installment_total: source semantics (matches Coq)
(declare-fun source_installment_total () Bool)
(declare-fun target_installment_total () Bool)
(assert (= source_installment_total target_installment_total))

; sum_installment_principals: source semantics (matches Coq)
(declare-fun source_sum_installment_principals () Bool)
(declare-fun target_sum_installment_principals () Bool)
(assert (= source_sum_installment_principals target_sum_installment_principals))

; sum_installment_interest: source semantics (matches Coq)
(declare-fun source_sum_installment_interest () Bool)
(declare-fun target_sum_installment_interest () Bool)
(assert (= source_sum_installment_interest target_sum_installment_interest))

; amortization_correct: source semantics (matches Coq)
(declare-fun source_amortization_correct () Bool)
(declare-fun target_amortization_correct () Bool)
(assert (= source_amortization_correct target_amortization_correct))

; covenant_monitoring_correct: source semantics (matches Coq)
(declare-fun source_covenant_monitoring_correct () Bool)
(declare-fun target_covenant_monitoring_correct () Bool)
(assert (= source_covenant_monitoring_correct target_covenant_monitoring_correct))

; within_facility_limit: source semantics (matches Coq)
(declare-fun source_within_facility_limit () Bool)
(declare-fun target_within_facility_limit () Bool)
(assert (= source_within_facility_limit target_within_facility_limit))

; payment_within_sla: source semantics (matches Coq)
(declare-fun source_payment_within_sla () Bool)
(declare-fun target_payment_within_sla () Bool)
(assert (= source_payment_within_sla target_payment_within_sla))

; payment_irrevocable: source semantics (matches Coq)
(declare-fun source_payment_irrevocable () Bool)
(declare-fun target_payment_irrevocable () Bool)
(assert (= source_payment_irrevocable target_payment_irrevocable))

; nostro_balanced: source semantics (matches Coq)
(declare-fun source_nostro_balanced () Bool)
(declare-fun target_nostro_balanced () Bool)
(assert (= source_nostro_balanced target_nostro_balanced))

; swift_validation_enforced: source semantics (matches Coq)
(declare-fun source_swift_validation_enforced () Bool)
(declare-fun target_swift_validation_enforced () Bool)
(assert (= source_swift_validation_enforced target_swift_validation_enforced))

; spot_t_plus_2: source semantics (matches Coq)
(declare-fun source_spot_t_plus_2 () Bool)
(declare-fun target_spot_t_plus_2 () Bool)
(assert (= source_spot_t_plus_2 target_spot_t_plus_2))

; spot_settlement_correct: source semantics (matches Coq)
(declare-fun source_spot_settlement_correct () Bool)
(declare-fun target_spot_settlement_correct () Bool)
(assert (= source_spot_settlement_correct target_spot_settlement_correct))

; repo_haircut_applied: source semantics (matches Coq)
(declare-fun source_repo_haircut_applied () Bool)
(declare-fun target_repo_haircut_applied () Bool)
(assert (= source_repo_haircut_applied target_repo_haircut_applied))

; bond_accrued_formula: source semantics (matches Coq)
(declare-fun source_bond_accrued_formula () Bool)
(declare-fun target_bond_accrued_formula () Bool)
(assert (= source_bond_accrued_formula target_bond_accrued_formula))

; accrued_interest_correct: source semantics (matches Coq)
(declare-fun source_accrued_interest_correct () Bool)
(declare-fun target_accrued_interest_correct () Bool)
(assert (= source_accrued_interest_correct target_accrued_interest_correct))

; irs_npv_formula: source semantics (matches Coq)
(declare-fun source_irs_npv_formula () Bool)
(declare-fun target_irs_npv_formula () Bool)
(assert (= source_irs_npv_formula target_irs_npv_formula))

; irs_valuation_correct: source semantics (matches Coq)
(declare-fun source_irs_valuation_correct () Bool)
(declare-fun target_irs_valuation_correct () Bool)
(assert (= source_irs_valuation_correct target_irs_valuation_correct))

; mtm_beyond_threshold: source semantics (matches Coq)
(declare-fun source_mtm_beyond_threshold () Bool)
(declare-fun target_mtm_beyond_threshold () Bool)
(assert (= source_mtm_beyond_threshold target_mtm_beyond_threshold))

; collateral_call_correct: source semantics (matches Coq)
(declare-fun source_collateral_call_correct () Bool)
(declare-fun target_collateral_call_correct () Bool)
(assert (= source_collateral_call_correct target_collateral_call_correct))

; murabaha_selling_price: source semantics (matches Coq)
(declare-fun source_murabaha_selling_price () Bool)
(declare-fun target_murabaha_selling_price () Bool)
(assert (= source_murabaha_selling_price target_murabaha_selling_price))

; during_tenure: source semantics (matches Coq)
(declare-fun source_during_tenure () Bool)
(declare-fun target_during_tenure () Bool)
(assert (= source_during_tenure target_during_tenure))

; bank_retains_ownership: source semantics (matches Coq)
(declare-fun source_bank_retains_ownership () Bool)
(declare-fun target_bank_retains_ownership () Bool)
(assert (= source_bank_retains_ownership target_bank_retains_ownership))

; partner_profit_share: source semantics (matches Coq)
(declare-fun source_partner_profit_share () Bool)
(declare-fun target_partner_profit_share () Bool)
(assert (= source_partner_profit_share target_partner_profit_share))

; partner_loss_share: source semantics (matches Coq)
(declare-fun source_partner_loss_share () Bool)
(declare-fun target_partner_loss_share () Bool)
(assert (= source_partner_loss_share target_partner_loss_share))

; profit_by_ratio_loss_by_capital: source semantics (matches Coq)
(declare-fun source_profit_by_ratio_loss_by_capital () Bool)
(declare-fun target_profit_by_ratio_loss_by_capital () Bool)
(assert (= source_profit_by_ratio_loss_by_capital target_profit_by_ratio_loss_by_capital))

; sukuk_backed_by_assets: source semantics (matches Coq)
(declare-fun source_sukuk_backed_by_assets () Bool)
(declare-fun target_sukuk_backed_by_assets () Bool)
(assert (= source_sukuk_backed_by_assets target_sukuk_backed_by_assets))

; no_riba: source semantics (matches Coq)
(declare-fun source_no_riba () Bool)
(declare-fun target_no_riba () Bool)
(assert (= source_no_riba target_no_riba))

; BANK_001_01_customer_identity_uniqueness: translation preserves property (matches Coq: Theorem)
(declare-fun source_BANK_001_01_customer_identity_uniqueness () Bool)
(declare-fun target_BANK_001_01_customer_identity_uniqueness () Bool)
(assert (= source_BANK_001_01_customer_identity_uniqueness target_BANK_001_01_customer_identity_uniqueness))

; BANK_001_02_kyc_completeness: translation preserves property (matches Coq: Theorem)
(declare-fun source_BANK_001_02_kyc_completeness () Bool)
(declare-fun target_BANK_001_02_kyc_completeness () Bool)
(assert (= source_BANK_001_02_kyc_completeness target_BANK_001_02_kyc_completeness))

; BANK_001_03_beneficial_ownership_complete: translation preserves property (matches Coq: Theorem)
(declare-fun source_BANK_001_03_beneficial_ownership_complete () Bool)
(declare-fun target_BANK_001_03_beneficial_ownership_complete () Bool)
(assert (= source_BANK_001_03_beneficial_ownership_complete target_BANK_001_03_beneficial_ownership_complete))

; BANK_001_04_sanctions_check_mandatory: translation preserves property (matches Coq: Theorem)
(declare-fun source_BANK_001_04_sanctions_check_mandatory () Bool)
(declare-fun target_BANK_001_04_sanctions_check_mandatory () Bool)
(assert (= source_BANK_001_04_sanctions_check_mandatory target_BANK_001_04_sanctions_check_mandatory))

; BANK_001_05_pep_enhanced_monitoring: translation preserves property (matches Coq: Theorem)
(declare-fun source_BANK_001_05_pep_enhanced_monitoring () Bool)
(declare-fun target_BANK_001_05_pep_enhanced_monitoring () Bool)
(assert (= source_BANK_001_05_pep_enhanced_monitoring target_BANK_001_05_pep_enhanced_monitoring))

; BANK_001_06_balance_non_negative: translation preserves property (matches Coq: Theorem)
(declare-fun source_BANK_001_06_balance_non_negative () Bool)
(declare-fun target_BANK_001_06_balance_non_negative () Bool)
(assert (= source_BANK_001_06_balance_non_negative target_BANK_001_06_balance_non_negative))

; BANK_001_07_interest_calculation_precise: translation preserves property (matches Coq: Theorem)
(declare-fun source_BANK_001_07_interest_calculation_precise () Bool)
(declare-fun target_BANK_001_07_interest_calculation_precise () Bool)
(assert (= source_BANK_001_07_interest_calculation_precise target_BANK_001_07_interest_calculation_precise))

; fold_left_add_acc_general: translation preserves property (matches Coq: Lemma)
(declare-fun source_fold_left_add_acc_general () Bool)
(declare-fun target_fold_left_add_acc_general () Bool)
(assert (= source_fold_left_add_acc_general target_fold_left_add_acc_general))

; BANK_001_08_double_entry_invariant: translation preserves property (matches Coq: Theorem)
(declare-fun source_BANK_001_08_double_entry_invariant () Bool)
(declare-fun target_BANK_001_08_double_entry_invariant () Bool)
(assert (= source_BANK_001_08_double_entry_invariant target_BANK_001_08_double_entry_invariant))

; BANK_001_09_term_deposit_lock: translation preserves property (matches Coq: Theorem)
(declare-fun source_BANK_001_09_term_deposit_lock () Bool)
(declare-fun target_BANK_001_09_term_deposit_lock () Bool)
(assert (= source_BANK_001_09_term_deposit_lock target_BANK_001_09_term_deposit_lock))

; BANK_001_10_dormancy_detection: translation preserves property (matches Coq: Theorem)
(declare-fun source_BANK_001_10_dormancy_detection () Bool)
(declare-fun target_BANK_001_10_dormancy_detection () Bool)
(assert (= source_BANK_001_10_dormancy_detection target_BANK_001_10_dormancy_detection))

; BANK_001_11_loan_within_eligibility: translation preserves property (matches Coq: Theorem)
(declare-fun source_BANK_001_11_loan_within_eligibility () Bool)
(declare-fun target_BANK_001_11_loan_within_eligibility () Bool)
(assert (= source_BANK_001_11_loan_within_eligibility target_BANK_001_11_loan_within_eligibility))

; BANK_001_12_collateral_coverage: translation preserves property (matches Coq: Theorem)
(declare-fun source_BANK_001_12_collateral_coverage () Bool)
(declare-fun target_BANK_001_12_collateral_coverage () Bool)
(assert (= source_BANK_001_12_collateral_coverage target_BANK_001_12_collateral_coverage))

; BANK_001_13_amortization_correctness: translation preserves property (matches Coq: Theorem)
(declare-fun source_BANK_001_13_amortization_correctness () Bool)
(declare-fun target_BANK_001_13_amortization_correctness () Bool)
(assert (= source_BANK_001_13_amortization_correctness target_BANK_001_13_amortization_correctness))

; BANK_001_14_covenant_monitoring: translation preserves property (matches Coq: Theorem)
(declare-fun source_BANK_001_14_covenant_monitoring () Bool)
(declare-fun target_BANK_001_14_covenant_monitoring () Bool)
(assert (= source_BANK_001_14_covenant_monitoring target_BANK_001_14_covenant_monitoring))

; BANK_001_15_facility_limit_enforcement: translation preserves property (matches Coq: Theorem)
(declare-fun source_BANK_001_15_facility_limit_enforcement () Bool)
(declare-fun target_BANK_001_15_facility_limit_enforcement () Bool)
(assert (= source_BANK_001_15_facility_limit_enforcement target_BANK_001_15_facility_limit_enforcement))

; BANK_001_16_instant_payment_completion: translation preserves property (matches Coq: Theorem)
(declare-fun source_BANK_001_16_instant_payment_completion () Bool)
(declare-fun target_BANK_001_16_instant_payment_completion () Bool)
(assert (= source_BANK_001_16_instant_payment_completion target_BANK_001_16_instant_payment_completion))

; BANK_001_17_payment_irrevocability: translation preserves property (matches Coq: Theorem)
(declare-fun source_BANK_001_17_payment_irrevocability () Bool)
(declare-fun target_BANK_001_17_payment_irrevocability () Bool)
(assert (= source_BANK_001_17_payment_irrevocability target_BANK_001_17_payment_irrevocability))

; BANK_001_18_idempotency: translation preserves property (matches Coq: Theorem)
(declare-fun source_BANK_001_18_idempotency () Bool)
(declare-fun target_BANK_001_18_idempotency () Bool)
(assert (= source_BANK_001_18_idempotency target_BANK_001_18_idempotency))

; BANK_001_19_nostro_reconciliation: translation preserves property (matches Coq: Theorem)
(declare-fun source_BANK_001_19_nostro_reconciliation () Bool)
(declare-fun target_BANK_001_19_nostro_reconciliation () Bool)
(assert (= source_BANK_001_19_nostro_reconciliation target_BANK_001_19_nostro_reconciliation))

; BANK_001_20_swift_message_validation: translation preserves property (matches Coq: Theorem)
(declare-fun source_BANK_001_20_swift_message_validation () Bool)
(declare-fun target_BANK_001_20_swift_message_validation () Bool)
(assert (= source_BANK_001_20_swift_message_validation target_BANK_001_20_swift_message_validation))

; BANK_001_21_fx_spot_settlement: translation preserves property (matches Coq: Theorem)
(declare-fun source_BANK_001_21_fx_spot_settlement () Bool)
(declare-fun target_BANK_001_21_fx_spot_settlement () Bool)
(assert (= source_BANK_001_21_fx_spot_settlement target_BANK_001_21_fx_spot_settlement))

; BANK_001_22_repo_collateral_haircut: translation preserves property (matches Coq: Theorem)
(declare-fun source_BANK_001_22_repo_collateral_haircut () Bool)
(declare-fun target_BANK_001_22_repo_collateral_haircut () Bool)
(assert (= source_BANK_001_22_repo_collateral_haircut target_BANK_001_22_repo_collateral_haircut))

; BANK_001_23_bond_accrued_interest: translation preserves property (matches Coq: Theorem)
(declare-fun source_BANK_001_23_bond_accrued_interest () Bool)
(declare-fun target_BANK_001_23_bond_accrued_interest () Bool)
(assert (= source_BANK_001_23_bond_accrued_interest target_BANK_001_23_bond_accrued_interest))

; BANK_001_24_derivative_valuation: translation preserves property (matches Coq: Theorem)
(declare-fun source_BANK_001_24_derivative_valuation () Bool)
(declare-fun target_BANK_001_24_derivative_valuation () Bool)
(assert (= source_BANK_001_24_derivative_valuation target_BANK_001_24_derivative_valuation))

; BANK_001_25_collateral_call_trigger: translation preserves property (matches Coq: Theorem)
(declare-fun source_BANK_001_25_collateral_call_trigger () Bool)
(declare-fun target_BANK_001_25_collateral_call_trigger () Bool)
(assert (= source_BANK_001_25_collateral_call_trigger target_BANK_001_25_collateral_call_trigger))

; BANK_001_26_murabaha_cost_plus: translation preserves property (matches Coq: Theorem)
(declare-fun source_BANK_001_26_murabaha_cost_plus () Bool)
(declare-fun target_BANK_001_26_murabaha_cost_plus () Bool)
(assert (= source_BANK_001_26_murabaha_cost_plus target_BANK_001_26_murabaha_cost_plus))

; BANK_001_27_ijarah_ownership: translation preserves property (matches Coq: Theorem)
(declare-fun source_BANK_001_27_ijarah_ownership () Bool)
(declare-fun target_BANK_001_27_ijarah_ownership () Bool)
(assert (= source_BANK_001_27_ijarah_ownership target_BANK_001_27_ijarah_ownership))

; BANK_001_28_musharakah_profit_loss: translation preserves property (matches Coq: Theorem)
(declare-fun source_BANK_001_28_musharakah_profit_loss () Bool)
(declare-fun target_BANK_001_28_musharakah_profit_loss () Bool)
(assert (= source_BANK_001_28_musharakah_profit_loss target_BANK_001_28_musharakah_profit_loss))

; BANK_001_29_sukuk_asset_backing: translation preserves property (matches Coq: Theorem)
(declare-fun source_BANK_001_29_sukuk_asset_backing () Bool)
(declare-fun target_BANK_001_29_sukuk_asset_backing () Bool)
(assert (= source_BANK_001_29_sukuk_asset_backing target_BANK_001_29_sukuk_asset_backing))

; BANK_001_30_shariah_no_riba: translation preserves property (matches Coq: Theorem)
(declare-fun source_BANK_001_30_shariah_no_riba () Bool)
(declare-fun target_BANK_001_30_shariah_no_riba () Bool)
(assert (= source_BANK_001_30_shariah_no_riba target_BANK_001_30_shariah_no_riba))

; Verify all translation validations are satisfiable
(check-sat)
(exit)
